proyfinal/src/viki/013/experimentInOfficeAgust.take6.output/56089b3c-3396-493b-842d-ddbc2296e998.als.out
Reading from standard input... Use '--help' for help.
============================[ Problem Statistics ]=============================
|                                                                             |
|  Number of variables:         87638                                         |
|  Number of clauses:          161767                                         |
|  Parse time:                   0.04 s                                       |
|                                                                             |
============================[ Search Statistics ]==============================
| Conflicts |          ORIGINAL         |          LEARNT          | Progress |
|           |    Vars  Clauses Literals |    Limit  Clauses Lit/Cl |          |
===============================================================================
|       100 |   63041   107598   269070 |    39452      100      8 | 28.067 % |
|       250 |   62969   107565   268986 |    43397      244      9 | 28.149 % |
|       475 |   62969   107334   268370 |    47737      446     38 | 28.149 % |
|       812 |   62969   107334   268370 |    52511      783     57 | 28.149 % |
|      1318 |   62958   107289   268253 |    57762     1268     58 | 28.161 % |
|      2077 |   62958   107289   268253 |    63538     2027     67 | 28.161 % |
|      3216 |   62958   107289   268253 |    69892     3166     76 | 28.161 % |
===============================================================================
restarts              : 21
conflicts             : 3848           (7363 /sec)
decisions             : 12313          (0.00 % random) (23560 /sec)
propagations          : 6053895        (11583830 /sec)
conflict literals     : 282247         (53.94 % deleted)
Memory used           : 24.80 MB
CPU time              : 0.522616 s

UNSATISFIABLE
